MARKOV
252
2 2 2 2 2 2 2 2 2 2 2 2 2 2 2 2 2 2 2 2 2 2 2 2 2 2 2 2 2 2 2 2 2 2 2 2 2 2 2 2 2 2 2 2 2 2 2 2 2 2 2 2 2 2 2 2 2 2 2 2 2 2 2 2 2 2 2 2 2 2 2 2 2 2 2 2 2 2 2 2 2 2 2 2 2 2 2 2 2 2 2 2 2 2 2 2 2 2 2 2 2 2 2 2 2 2 2 2 2 2 2 2 2 2 2 2 2 2 2 2 2 2 2 2 2 2 2 2 2 2 2 2 2 2 2 2 2 2 2 2 2 2 2 2 2 2 2 2 2 2 2 2 2 2 2 2 2 2 2 2 2 2 2 2 2 2 2 2 2 2 2 2 2 2 2 2 2 2 2 2 2 2 2 2 2 2 2 2 2 2 2 2 2 2 2 2 2 2 2 2 2 2 2 2 2 2 2 2 2 2 2 2 2 2 2 2 2 2 2 2 2 2 2 2 2 2 2 2 2 2 2 2 2 2 2 2 2 2 2 2 2 2 2 2 2 2 2 2 2 2 2 2
766
2 0 24
2 4 28
2 8 32
2 12 36
2 16 40
2 20 44
2 1 25
2 5 29
2 9 33
2 13 37
2 17 41
2 21 45
2 2 26
2 6 30
2 10 34
2 14 38
2 18 42
2 22 46
2 3 27
2 7 31
2 11 35
2 15 39
2 19 43
2 23 47
5 48 0 1 2 3
5 50 4 5 6 7
5 52 8 9 10 11
5 54 12 13 14 15
5 56 16 17 18 19
5 58 20 21 22 23
5 48 0 1 2 27
5 50 4 5 6 31
5 52 8 9 10 35
5 54 12 13 14 39
5 56 16 17 18 43
5 58 20 21 22 47
5 48 0 25 2 3
5 50 4 29 6 7
5 52 8 33 10 11
5 54 12 37 14 15
5 56 16 41 18 19
5 58 20 45 22 23
5 48 0 25 2 27
5 50 4 29 6 31
5 52 8 33 10 35
5 54 12 37 14 39
5 56 16 41 18 43
5 58 20 45 22 47
5 49 0 1 2 3
5 51 4 5 6 7
5 53 8 9 10 11
5 55 12 13 14 15
5 57 16 17 18 19
5 59 20 21 22 23
5 49 0 1 26 3
5 51 4 5 30 7
5 53 8 9 34 11
5 55 12 13 38 15
5 57 16 17 42 19
5 59 20 21 46 23
5 49 0 25 26 3
5 51 4 29 30 7
5 53 8 33 34 11
5 55 12 37 38 15
5 57 16 41 42 19
5 59 20 45 46 23
5 49 24 1 2 3
5 51 28 5 6 7
5 53 32 9 10 11
5 55 36 13 14 15
5 57 40 17 18 19
5 59 44 21 22 23
5 49 24 1 2 27
5 51 28 5 6 31
5 53 32 9 10 35
5 55 36 13 14 39
5 57 40 17 18 43
5 59 44 21 22 47
5 49 24 1 26 3
5 51 28 5 30 7
5 53 32 9 34 11
5 55 36 13 38 15
5 57 40 17 42 19
5 59 44 21 46 23
6 84 86 88 90 92 94
6 96 98 100 102 104 106
6 132 134 136 138 140 142
6 144 146 148 150 152 154
6 156 158 160 162 164 166
6 168 170 172 174 176 178
6 180 182 184 186 188 190
6 192 194 196 198 200 202
6 204 206 208 210 212 214
6 216 218 220 222 224 226
6 228 230 232 234 236 238
6 240 242 244 246 248 250
6 73 75 77 79 81 83
6 97 99 101 103 105 107
6 109 111 113 115 117 119
6 121 123 125 127 129 131
6 145 147 149 151 153 155
6 193 195 197 199 201 203
6 205 207 209 211 213 215
6 217 219 221 223 225 227
6 229 231 233 235 237 239
6 241 243 245 247 249 251
2 84 48
2 86 50
2 88 52
2 90 54
2 92 56
2 94 58
2 96 48
2 98 50
2 100 52
2 102 54
2 104 56
2 106 58
2 132 48
2 134 50
2 136 52
2 138 54
2 140 56
2 142 58
2 144 48
2 146 50
2 148 52
2 150 54
2 152 56
2 154 58
2 156 48
2 158 50
2 160 52
2 162 54
2 164 56
2 166 58
2 168 48
2 170 50
2 172 52
2 174 54
2 176 56
2 178 58
2 180 48
2 182 50
2 184 52
2 186 54
2 188 56
2 190 58
2 192 48
2 194 50
2 196 52
2 198 54
2 200 56
2 202 58
2 204 48
2 206 50
2 208 52
2 210 54
2 212 56
2 214 58
2 216 48
2 218 50
2 220 52
2 222 54
2 224 56
2 226 58
2 228 48
2 230 50
2 232 52
2 234 54
2 236 56
2 238 58
2 240 48
2 242 50
2 244 52
2 246 54
2 248 56
2 250 58
2 73 49
2 75 51
2 77 53
2 79 55
2 81 57
2 83 59
2 97 49
2 99 51
2 101 53
2 103 55
2 105 57
2 107 59
2 109 49
2 111 51
2 113 53
2 115 55
2 117 57
2 119 59
2 121 49
2 123 51
2 125 53
2 127 55
2 129 57
2 131 59
2 145 49
2 147 51
2 149 53
2 151 55
2 153 57
2 155 59
2 193 49
2 195 51
2 197 53
2 199 55
2 201 57
2 203 59
2 205 49
2 207 51
2 209 53
2 211 55
2 213 57
2 215 59
2 217 49
2 219 51
2 221 53
2 223 55
2 225 57
2 227 59
2 229 49
2 231 51
2 233 53
2 235 55
2 237 57
2 239 59
2 241 49
2 243 51
2 245 53
2 247 55
2 249 57
2 251 59
2 84 0
2 86 4
2 88 8
2 90 12
2 92 16
2 94 20
2 84 1
2 86 5
2 88 9
2 90 13
2 92 17
2 94 21
2 84 26
2 86 30
2 88 34
2 90 38
2 92 42
2 94 46
2 84 3
2 86 7
2 88 11
2 90 15
2 92 19
2 94 23
2 96 0
2 98 4
2 100 8
2 102 12
2 104 16
2 106 20
2 96 1
2 98 5
2 100 9
2 102 13
2 104 17
2 106 21
2 96 26
2 98 30
2 100 34
2 102 38
2 104 42
2 106 46
2 96 27
2 98 31
2 100 35
2 102 39
2 104 43
2 106 47
2 132 0
2 134 4
2 136 8
2 138 12
2 140 16
2 142 20
2 132 25
2 134 29
2 136 33
2 138 37
2 140 41
2 142 45
2 132 26
2 134 30
2 136 34
2 138 38
2 140 42
2 142 46
2 132 3
2 134 7
2 136 11
2 138 15
2 140 19
2 142 23
2 144 0
2 146 4
2 148 8
2 150 12
2 152 16
2 154 20
2 144 25
2 146 29
2 148 33
2 150 37
2 152 41
2 154 45
2 144 26
2 146 30
2 148 34
2 150 38
2 152 42
2 154 46
2 144 27
2 146 31
2 148 35
2 150 39
2 152 43
2 154 47
2 156 24
2 158 28
2 160 32
2 162 36
2 164 40
2 166 44
2 156 1
2 158 5
2 160 9
2 162 13
2 164 17
2 166 21
2 156 2
2 158 6
2 160 10
2 162 14
2 164 18
2 166 22
2 156 3
2 158 7
2 160 11
2 162 15
2 164 19
2 166 23
2 168 24
2 170 28
2 172 32
2 174 36
2 176 40
2 178 44
2 168 1
2 170 5
2 172 9
2 174 13
2 176 17
2 178 21
2 168 2
2 170 6
2 172 10
2 174 14
2 176 18
2 178 22
2 168 27
2 170 31
2 172 35
2 174 39
2 176 43
2 178 47
2 180 24
2 182 28
2 184 32
2 186 36
2 188 40
2 190 44
2 180 1
2 182 5
2 184 9
2 186 13
2 188 17
2 190 21
2 180 26
2 182 30
2 184 34
2 186 38
2 188 42
2 190 46
2 180 3
2 182 7
2 184 11
2 186 15
2 188 19
2 190 23
2 192 24
2 194 28
2 196 32
2 198 36
2 200 40
2 202 44
2 192 1
2 194 5
2 196 9
2 198 13
2 200 17
2 202 21
2 192 26
2 194 30
2 196 34
2 198 38
2 200 42
2 202 46
2 192 27
2 194 31
2 196 35
2 198 39
2 200 43
2 202 47
2 204 24
2 206 28
2 208 32
2 210 36
2 212 40
2 214 44
2 204 25
2 206 29
2 208 33
2 210 37
2 212 41
2 214 45
2 204 2
2 206 6
2 208 10
2 210 14
2 212 18
2 214 22
2 204 3
2 206 7
2 208 11
2 210 15
2 212 19
2 214 23
2 216 24
2 218 28
2 220 32
2 222 36
2 224 40
2 226 44
2 216 25
2 218 29
2 220 33
2 222 37
2 224 41
2 226 45
2 216 2
2 218 6
2 220 10
2 222 14
2 224 18
2 226 22
2 216 27
2 218 31
2 220 35
2 222 39
2 224 43
2 226 47
2 228 24
2 230 28
2 232 32
2 234 36
2 236 40
2 238 44
2 228 25
2 230 29
2 232 33
2 234 37
2 236 41
2 238 45
2 228 26
2 230 30
2 232 34
2 234 38
2 236 42
2 238 46
2 228 3
2 230 7
2 232 11
2 234 15
2 236 19
2 238 23
2 240 24
2 242 28
2 244 32
2 246 36
2 248 40
2 250 44
2 240 25
2 242 29
2 244 33
2 246 37
2 248 41
2 250 45
2 240 26
2 242 30
2 244 34
2 246 38
2 248 42
2 250 46
2 240 27
2 242 31
2 244 35
2 246 39
2 248 43
2 250 47
2 73 0
2 75 4
2 77 8
2 79 12
2 81 16
2 83 20
2 73 1
2 75 5
2 77 9
2 79 13
2 81 17
2 83 21
2 73 2
2 75 6
2 77 10
2 79 14
2 81 18
2 83 22
2 73 27
2 75 31
2 77 35
2 79 39
2 81 43
2 83 47
2 97 0
2 99 4
2 101 8
2 103 12
2 105 16
2 107 20
2 97 1
2 99 5
2 101 9
2 103 13
2 105 17
2 107 21
2 97 26
2 99 30
2 101 34
2 103 38
2 105 42
2 107 46
2 97 27
2 99 31
2 101 35
2 103 39
2 105 43
2 107 47
2 109 0
2 111 4
2 113 8
2 115 12
2 117 16
2 119 20
2 109 25
2 111 29
2 113 33
2 115 37
2 117 41
2 119 45
2 109 2
2 111 6
2 113 10
2 115 14
2 117 18
2 119 22
2 109 3
2 111 7
2 113 11
2 115 15
2 117 19
2 119 23
2 121 0
2 123 4
2 125 8
2 127 12
2 129 16
2 131 20
2 121 25
2 123 29
2 125 33
2 127 37
2 129 41
2 131 45
2 121 2
2 123 6
2 125 10
2 127 14
2 129 18
2 131 22
2 121 27
2 123 31
2 125 35
2 127 39
2 129 43
2 131 47
2 145 0
2 147 4
2 149 8
2 151 12
2 153 16
2 155 20
2 145 25
2 147 29
2 149 33
2 151 37
2 153 41
2 155 45
2 145 26
2 147 30
2 149 34
2 151 38
2 153 42
2 155 46
2 145 27
2 147 31
2 149 35
2 151 39
2 153 43
2 155 47
2 193 24
2 195 28
2 197 32
2 199 36
2 201 40
2 203 44
2 193 1
2 195 5
2 197 9
2 199 13
2 201 17
2 203 21
2 193 26
2 195 30
2 197 34
2 199 38
2 201 42
2 203 46
2 193 27
2 195 31
2 197 35
2 199 39
2 201 43
2 203 47
2 205 24
2 207 28
2 209 32
2 211 36
2 213 40
2 215 44
2 205 25
2 207 29
2 209 33
2 211 37
2 213 41
2 215 45
2 205 2
2 207 6
2 209 10
2 211 14
2 213 18
2 215 22
2 205 3
2 207 7
2 209 11
2 211 15
2 213 19
2 215 23
2 217 24
2 219 28
2 221 32
2 223 36
2 225 40
2 227 44
2 217 25
2 219 29
2 221 33
2 223 37
2 225 41
2 227 45
2 217 2
2 219 6
2 221 10
2 223 14
2 225 18
2 227 22
2 217 27
2 219 31
2 221 35
2 223 39
2 225 43
2 227 47
2 229 24
2 231 28
2 233 32
2 235 36
2 237 40
2 239 44
2 229 25
2 231 29
2 233 33
2 235 37
2 237 41
2 239 45
2 229 26
2 231 30
2 233 34
2 235 38
2 237 42
2 239 46
2 229 3
2 231 7
2 233 11
2 235 15
2 237 19
2 239 23
2 241 24
2 243 28
2 245 32
2 247 36
2 249 40
2 251 44
2 241 25
2 243 29
2 245 33
2 247 37
2 249 41
2 251 45
2 241 26
2 243 30
2 245 34
2 247 38
2 249 42
2 251 46
2 241 27
2 243 31
2 245 35
2 247 39
2 249 43
2 251 47
4
0 1 1 1
4
0 1 1 1
4
0 1 1 1
4
0 1 1 1
4
0 1 1 1
4
0 1 1 1
4
0 1 1 1
4
0 1 1 1
4
0 1 1 1
4
0 1 1 1
4
0 1 1 1
4
0 1 1 1
4
0 1 1 1
4
0 1 1 1
4
0 1 1 1
4
0 1 1 1
4
0 1 1 1
4
0 1 1 1
4
0 1 1 1
4
0 1 1 1
4
0 1 1 1
4
0 1 1 1
4
0 1 1 1
4
0 1 1 1
32
1 1 1 1 1 1 1 1 1 1 1 1 1 1 1 1 1 1 1 1 1 1 1 1 1 1 1 1 1 1 1 0
32
1 1 1 1 1 1 1 1 1 1 1 1 1 1 1 1 1 1 1 1 1 1 1 1 1 1 1 1 1 1 1 0
32
1 1 1 1 1 1 1 1 1 1 1 1 1 1 1 1 1 1 1 1 1 1 1 1 1 1 1 1 1 1 1 0
32
1 1 1 1 1 1 1 1 1 1 1 1 1 1 1 1 1 1 1 1 1 1 1 1 1 1 1 1 1 1 1 0
32
1 1 1 1 1 1 1 1 1 1 1 1 1 1 1 1 1 1 1 1 1 1 1 1 1 1 1 1 1 1 1 0
32
1 1 1 1 1 1 1 1 1 1 1 1 1 1 1 1 1 1 1 1 1 1 1 1 1 1 1 1 1 1 1 0
32
1 1 1 1 1 1 1 1 1 1 1 1 1 1 1 1 1 1 1 1 1 1 1 1 1 1 1 1 1 1 1 0
32
1 1 1 1 1 1 1 1 1 1 1 1 1 1 1 1 1 1 1 1 1 1 1 1 1 1 1 1 1 1 1 0
32
1 1 1 1 1 1 1 1 1 1 1 1 1 1 1 1 1 1 1 1 1 1 1 1 1 1 1 1 1 1 1 0
32
1 1 1 1 1 1 1 1 1 1 1 1 1 1 1 1 1 1 1 1 1 1 1 1 1 1 1 1 1 1 1 0
32
1 1 1 1 1 1 1 1 1 1 1 1 1 1 1 1 1 1 1 1 1 1 1 1 1 1 1 1 1 1 1 0
32
1 1 1 1 1 1 1 1 1 1 1 1 1 1 1 1 1 1 1 1 1 1 1 1 1 1 1 1 1 1 1 0
32
1 1 1 1 1 1 1 1 1 1 1 1 1 1 1 1 1 1 1 1 1 1 1 1 1 1 1 1 1 1 1 0
32
1 1 1 1 1 1 1 1 1 1 1 1 1 1 1 1 1 1 1 1 1 1 1 1 1 1 1 1 1 1 1 0
32
1 1 1 1 1 1 1 1 1 1 1 1 1 1 1 1 1 1 1 1 1 1 1 1 1 1 1 1 1 1 1 0
32
1 1 1 1 1 1 1 1 1 1 1 1 1 1 1 1 1 1 1 1 1 1 1 1 1 1 1 1 1 1 1 0
32
1 1 1 1 1 1 1 1 1 1 1 1 1 1 1 1 1 1 1 1 1 1 1 1 1 1 1 1 1 1 1 0
32
1 1 1 1 1 1 1 1 1 1 1 1 1 1 1 1 1 1 1 1 1 1 1 1 1 1 1 1 1 1 1 0
32
1 1 1 1 1 1 1 1 1 1 1 1 1 1 1 1 1 1 1 1 1 1 1 1 1 1 1 1 1 1 1 0
32
1 1 1 1 1 1 1 1 1 1 1 1 1 1 1 1 1 1 1 1 1 1 1 1 1 1 1 1 1 1 1 0
32
1 1 1 1 1 1 1 1 1 1 1 1 1 1 1 1 1 1 1 1 1 1 1 1 1 1 1 1 1 1 1 0
32
1 1 1 1 1 1 1 1 1 1 1 1 1 1 1 1 1 1 1 1 1 1 1 1 1 1 1 1 1 1 1 0
32
1 1 1 1 1 1 1 1 1 1 1 1 1 1 1 1 1 1 1 1 1 1 1 1 1 1 1 1 1 1 1 0
32
1 1 1 1 1 1 1 1 1 1 1 1 1 1 1 1 1 1 1 1 1 1 1 1 1 1 1 1 1 1 1 0
32
1 1 1 1 1 1 1 1 1 1 1 1 1 1 1 1 1 1 1 1 1 1 1 1 1 1 1 1 1 1 1 0
32
1 1 1 1 1 1 1 1 1 1 1 1 1 1 1 1 1 1 1 1 1 1 1 1 1 1 1 1 1 1 1 0
32
1 1 1 1 1 1 1 1 1 1 1 1 1 1 1 1 1 1 1 1 1 1 1 1 1 1 1 1 1 1 1 0
32
1 1 1 1 1 1 1 1 1 1 1 1 1 1 1 1 1 1 1 1 1 1 1 1 1 1 1 1 1 1 1 0
32
1 1 1 1 1 1 1 1 1 1 1 1 1 1 1 1 1 1 1 1 1 1 1 1 1 1 1 1 1 1 1 0
32
1 1 1 1 1 1 1 1 1 1 1 1 1 1 1 1 1 1 1 1 1 1 1 1 1 1 1 1 1 1 1 0
32
1 1 1 1 1 1 1 1 1 1 1 1 1 1 1 1 1 1 1 1 1 1 1 1 1 1 1 1 1 1 1 0
32
1 1 1 1 1 1 1 1 1 1 1 1 1 1 1 1 1 1 1 1 1 1 1 1 1 1 1 1 1 1 1 0
32
1 1 1 1 1 1 1 1 1 1 1 1 1 1 1 1 1 1 1 1 1 1 1 1 1 1 1 1 1 1 1 0
32
1 1 1 1 1 1 1 1 1 1 1 1 1 1 1 1 1 1 1 1 1 1 1 1 1 1 1 1 1 1 1 0
32
1 1 1 1 1 1 1 1 1 1 1 1 1 1 1 1 1 1 1 1 1 1 1 1 1 1 1 1 1 1 1 0
32
1 1 1 1 1 1 1 1 1 1 1 1 1 1 1 1 1 1 1 1 1 1 1 1 1 1 1 1 1 1 1 0
32
1 1 1 1 1 1 1 1 1 1 1 1 1 1 1 1 1 1 1 1 1 1 1 1 1 1 1 1 1 1 1 0
32
1 1 1 1 1 1 1 1 1 1 1 1 1 1 1 1 1 1 1 1 1 1 1 1 1 1 1 1 1 1 1 0
32
1 1 1 1 1 1 1 1 1 1 1 1 1 1 1 1 1 1 1 1 1 1 1 1 1 1 1 1 1 1 1 0
32
1 1 1 1 1 1 1 1 1 1 1 1 1 1 1 1 1 1 1 1 1 1 1 1 1 1 1 1 1 1 1 0
32
1 1 1 1 1 1 1 1 1 1 1 1 1 1 1 1 1 1 1 1 1 1 1 1 1 1 1 1 1 1 1 0
32
1 1 1 1 1 1 1 1 1 1 1 1 1 1 1 1 1 1 1 1 1 1 1 1 1 1 1 1 1 1 1 0
32
1 1 1 1 1 1 1 1 1 1 1 1 1 1 1 1 1 1 1 1 1 1 1 1 1 1 1 1 1 1 1 0
32
1 1 1 1 1 1 1 1 1 1 1 1 1 1 1 1 1 1 1 1 1 1 1 1 1 1 1 1 1 1 1 0
32
1 1 1 1 1 1 1 1 1 1 1 1 1 1 1 1 1 1 1 1 1 1 1 1 1 1 1 1 1 1 1 0
32
1 1 1 1 1 1 1 1 1 1 1 1 1 1 1 1 1 1 1 1 1 1 1 1 1 1 1 1 1 1 1 0
32
1 1 1 1 1 1 1 1 1 1 1 1 1 1 1 1 1 1 1 1 1 1 1 1 1 1 1 1 1 1 1 0
32
1 1 1 1 1 1 1 1 1 1 1 1 1 1 1 1 1 1 1 1 1 1 1 1 1 1 1 1 1 1 1 0
32
1 1 1 1 1 1 1 1 1 1 1 1 1 1 1 1 1 1 1 1 1 1 1 1 1 1 1 1 1 1 1 0
32
1 1 1 1 1 1 1 1 1 1 1 1 1 1 1 1 1 1 1 1 1 1 1 1 1 1 1 1 1 1 1 0
32
1 1 1 1 1 1 1 1 1 1 1 1 1 1 1 1 1 1 1 1 1 1 1 1 1 1 1 1 1 1 1 0
32
1 1 1 1 1 1 1 1 1 1 1 1 1 1 1 1 1 1 1 1 1 1 1 1 1 1 1 1 1 1 1 0
32
1 1 1 1 1 1 1 1 1 1 1 1 1 1 1 1 1 1 1 1 1 1 1 1 1 1 1 1 1 1 1 0
32
1 1 1 1 1 1 1 1 1 1 1 1 1 1 1 1 1 1 1 1 1 1 1 1 1 1 1 1 1 1 1 0
32
1 1 1 1 1 1 1 1 1 1 1 1 1 1 1 1 1 1 1 1 1 1 1 1 1 1 1 1 1 1 1 0
32
1 1 1 1 1 1 1 1 1 1 1 1 1 1 1 1 1 1 1 1 1 1 1 1 1 1 1 1 1 1 1 0
32
1 1 1 1 1 1 1 1 1 1 1 1 1 1 1 1 1 1 1 1 1 1 1 1 1 1 1 1 1 1 1 0
32
1 1 1 1 1 1 1 1 1 1 1 1 1 1 1 1 1 1 1 1 1 1 1 1 1 1 1 1 1 1 1 0
32
1 1 1 1 1 1 1 1 1 1 1 1 1 1 1 1 1 1 1 1 1 1 1 1 1 1 1 1 1 1 1 0
32
1 1 1 1 1 1 1 1 1 1 1 1 1 1 1 1 1 1 1 1 1 1 1 1 1 1 1 1 1 1 1 0
64
0 1 1 1 1 1 1 1 1 1 1 1 1 1 1 1 1 1 1 1 1 1 1 1 1 1 1 1 1 1 1 1 1 1 1 1 1 1 1 1 1 1 1 1 1 1 1 1 1 1 1 1 1 1 1 1 1 1 1 1 1 1 1 1
64
0 1 1 1 1 1 1 1 1 1 1 1 1 1 1 1 1 1 1 1 1 1 1 1 1 1 1 1 1 1 1 1 1 1 1 1 1 1 1 1 1 1 1 1 1 1 1 1 1 1 1 1 1 1 1 1 1 1 1 1 1 1 1 1
64
0 1 1 1 1 1 1 1 1 1 1 1 1 1 1 1 1 1 1 1 1 1 1 1 1 1 1 1 1 1 1 1 1 1 1 1 1 1 1 1 1 1 1 1 1 1 1 1 1 1 1 1 1 1 1 1 1 1 1 1 1 1 1 1
64
0 1 1 1 1 1 1 1 1 1 1 1 1 1 1 1 1 1 1 1 1 1 1 1 1 1 1 1 1 1 1 1 1 1 1 1 1 1 1 1 1 1 1 1 1 1 1 1 1 1 1 1 1 1 1 1 1 1 1 1 1 1 1 1
64
0 1 1 1 1 1 1 1 1 1 1 1 1 1 1 1 1 1 1 1 1 1 1 1 1 1 1 1 1 1 1 1 1 1 1 1 1 1 1 1 1 1 1 1 1 1 1 1 1 1 1 1 1 1 1 1 1 1 1 1 1 1 1 1
64
0 1 1 1 1 1 1 1 1 1 1 1 1 1 1 1 1 1 1 1 1 1 1 1 1 1 1 1 1 1 1 1 1 1 1 1 1 1 1 1 1 1 1 1 1 1 1 1 1 1 1 1 1 1 1 1 1 1 1 1 1 1 1 1
64
0 1 1 1 1 1 1 1 1 1 1 1 1 1 1 1 1 1 1 1 1 1 1 1 1 1 1 1 1 1 1 1 1 1 1 1 1 1 1 1 1 1 1 1 1 1 1 1 1 1 1 1 1 1 1 1 1 1 1 1 1 1 1 1
64
0 1 1 1 1 1 1 1 1 1 1 1 1 1 1 1 1 1 1 1 1 1 1 1 1 1 1 1 1 1 1 1 1 1 1 1 1 1 1 1 1 1 1 1 1 1 1 1 1 1 1 1 1 1 1 1 1 1 1 1 1 1 1 1
64
0 1 1 1 1 1 1 1 1 1 1 1 1 1 1 1 1 1 1 1 1 1 1 1 1 1 1 1 1 1 1 1 1 1 1 1 1 1 1 1 1 1 1 1 1 1 1 1 1 1 1 1 1 1 1 1 1 1 1 1 1 1 1 1
64
0 1 1 1 1 1 1 1 1 1 1 1 1 1 1 1 1 1 1 1 1 1 1 1 1 1 1 1 1 1 1 1 1 1 1 1 1 1 1 1 1 1 1 1 1 1 1 1 1 1 1 1 1 1 1 1 1 1 1 1 1 1 1 1
64
0 1 1 1 1 1 1 1 1 1 1 1 1 1 1 1 1 1 1 1 1 1 1 1 1 1 1 1 1 1 1 1 1 1 1 1 1 1 1 1 1 1 1 1 1 1 1 1 1 1 1 1 1 1 1 1 1 1 1 1 1 1 1 1
64
0 1 1 1 1 1 1 1 1 1 1 1 1 1 1 1 1 1 1 1 1 1 1 1 1 1 1 1 1 1 1 1 1 1 1 1 1 1 1 1 1 1 1 1 1 1 1 1 1 1 1 1 1 1 1 1 1 1 1 1 1 1 1 1
64
0 1 1 1 1 1 1 1 1 1 1 1 1 1 1 1 1 1 1 1 1 1 1 1 1 1 1 1 1 1 1 1 1 1 1 1 1 1 1 1 1 1 1 1 1 1 1 1 1 1 1 1 1 1 1 1 1 1 1 1 1 1 1 1
64
0 1 1 1 1 1 1 1 1 1 1 1 1 1 1 1 1 1 1 1 1 1 1 1 1 1 1 1 1 1 1 1 1 1 1 1 1 1 1 1 1 1 1 1 1 1 1 1 1 1 1 1 1 1 1 1 1 1 1 1 1 1 1 1
64
0 1 1 1 1 1 1 1 1 1 1 1 1 1 1 1 1 1 1 1 1 1 1 1 1 1 1 1 1 1 1 1 1 1 1 1 1 1 1 1 1 1 1 1 1 1 1 1 1 1 1 1 1 1 1 1 1 1 1 1 1 1 1 1
64
0 1 1 1 1 1 1 1 1 1 1 1 1 1 1 1 1 1 1 1 1 1 1 1 1 1 1 1 1 1 1 1 1 1 1 1 1 1 1 1 1 1 1 1 1 1 1 1 1 1 1 1 1 1 1 1 1 1 1 1 1 1 1 1
64
0 1 1 1 1 1 1 1 1 1 1 1 1 1 1 1 1 1 1 1 1 1 1 1 1 1 1 1 1 1 1 1 1 1 1 1 1 1 1 1 1 1 1 1 1 1 1 1 1 1 1 1 1 1 1 1 1 1 1 1 1 1 1 1
64
0 1 1 1 1 1 1 1 1 1 1 1 1 1 1 1 1 1 1 1 1 1 1 1 1 1 1 1 1 1 1 1 1 1 1 1 1 1 1 1 1 1 1 1 1 1 1 1 1 1 1 1 1 1 1 1 1 1 1 1 1 1 1 1
64
0 1 1 1 1 1 1 1 1 1 1 1 1 1 1 1 1 1 1 1 1 1 1 1 1 1 1 1 1 1 1 1 1 1 1 1 1 1 1 1 1 1 1 1 1 1 1 1 1 1 1 1 1 1 1 1 1 1 1 1 1 1 1 1
64
0 1 1 1 1 1 1 1 1 1 1 1 1 1 1 1 1 1 1 1 1 1 1 1 1 1 1 1 1 1 1 1 1 1 1 1 1 1 1 1 1 1 1 1 1 1 1 1 1 1 1 1 1 1 1 1 1 1 1 1 1 1 1 1
64
0 1 1 1 1 1 1 1 1 1 1 1 1 1 1 1 1 1 1 1 1 1 1 1 1 1 1 1 1 1 1 1 1 1 1 1 1 1 1 1 1 1 1 1 1 1 1 1 1 1 1 1 1 1 1 1 1 1 1 1 1 1 1 1
64
0 1 1 1 1 1 1 1 1 1 1 1 1 1 1 1 1 1 1 1 1 1 1 1 1 1 1 1 1 1 1 1 1 1 1 1 1 1 1 1 1 1 1 1 1 1 1 1 1 1 1 1 1 1 1 1 1 1 1 1 1 1 1 1
4
1 1 0 1
4
1 1 0 1
4
1 1 0 1
4
1 1 0 1
4
1 1 0 1
4
1 1 0 1
4
1 1 0 1
4
1 1 0 1
4
1 1 0 1
4
1 1 0 1
4
1 1 0 1
4
1 1 0 1
4
1 1 0 1
4
1 1 0 1
4
1 1 0 1
4
1 1 0 1
4
1 1 0 1
4
1 1 0 1
4
1 1 0 1
4
1 1 0 1
4
1 1 0 1
4
1 1 0 1
4
1 1 0 1
4
1 1 0 1
4
1 1 0 1
4
1 1 0 1
4
1 1 0 1
4
1 1 0 1
4
1 1 0 1
4
1 1 0 1
4
1 1 0 1
4
1 1 0 1
4
1 1 0 1
4
1 1 0 1
4
1 1 0 1
4
1 1 0 1
4
1 1 0 1
4
1 1 0 1
4
1 1 0 1
4
1 1 0 1
4
1 1 0 1
4
1 1 0 1
4
1 1 0 1
4
1 1 0 1
4
1 1 0 1
4
1 1 0 1
4
1 1 0 1
4
1 1 0 1
4
1 1 0 1
4
1 1 0 1
4
1 1 0 1
4
1 1 0 1
4
1 1 0 1
4
1 1 0 1
4
1 1 0 1
4
1 1 0 1
4
1 1 0 1
4
1 1 0 1
4
1 1 0 1
4
1 1 0 1
4
1 1 0 1
4
1 1 0 1
4
1 1 0 1
4
1 1 0 1
4
1 1 0 1
4
1 1 0 1
4
1 1 0 1
4
1 1 0 1
4
1 1 0 1
4
1 1 0 1
4
1 1 0 1
4
1 1 0 1
4
1 1 0 1
4
1 1 0 1
4
1 1 0 1
4
1 1 0 1
4
1 1 0 1
4
1 1 0 1
4
1 1 0 1
4
1 1 0 1
4
1 1 0 1
4
1 1 0 1
4
1 1 0 1
4
1 1 0 1
4
1 1 0 1
4
1 1 0 1
4
1 1 0 1
4
1 1 0 1
4
1 1 0 1
4
1 1 0 1
4
1 1 0 1
4
1 1 0 1
4
1 1 0 1
4
1 1 0 1
4
1 1 0 1
4
1 1 0 1
4
1 1 0 1
4
1 1 0 1
4
1 1 0 1
4
1 1 0 1
4
1 1 0 1
4
1 1 0 1
4
1 1 0 1
4
1 1 0 1
4
1 1 0 1
4
1 1 0 1
4
1 1 0 1
4
1 1 0 1
4
1 1 0 1
4
1 1 0 1
4
1 1 0 1
4
1 1 0 1
4
1 1 0 1
4
1 1 0 1
4
1 1 0 1
4
1 1 0 1
4
1 1 0 1
4
1 1 0 1
4
1 1 0 1
4
1 1 0 1
4
1 1 0 1
4
1 1 0 1
4
1 1 0 1
4
1 1 0 1
4
1 1 0 1
4
1 1 0 1
4
1 1 0 1
4
1 1 0 1
4
1 1 0 1
4
1 1 0 1
4
1 1 0 1
4
1 1 0 1
4
1 1 0 1
4
1 1 0 1
4
1 1 0 1
4
1 1 0 1
4
1 1 0 1
4
1 1 0 1
4
1 1 0 1
4
1 1 0 1
4
1 1 0 1
4
1 1 0 1
4
1 1 0 1
4
1 1 0 1
4
1 1 0 1
4
1 1 0 1
4
1 1 0 1
4
1 1 0 1
4
1 1 0 1
4
1 1 0 1
4
1 1 0 1
4
1 1 0 1
4
1 1 0 1
4
1 1 0 1
4
1 1 0 1
4
1 1 0 1
4
1 1 0 1
4
1 1 0 1
4
1 1 0 1
4
1 1 0 1
4
1 1 0 1
4
1 1 0 1
4
1 1 0 1
4
1 1 0 1
4
1 1 0 1
4
1 1 0 1
4
1 1 0 1
4
1 1 0 1
4
1 1 0 1
4
1 1 0 1
4
1 1 0 1
4
1 1 0 1
4
1 1 0 1
4
1 1 0 1
4
1 1 0 1
4
1 1 0 1
4
1 1 0 1
4
1 1 0 1
4
1 1 0 1
4
1 1 0 1
4
1 1 0 1
4
1 1 0 1
4
1 1 0 1
4
1 1 0 1
4
1 1 0 1
4
1 1 0 1
4
1 1 0 1
4
1 1 0 1
4
1 1 0 1
4
1 1 0 1
4
1 1 0 1
4
1 1 0 1
4
1 1 0 1
4
1 1 0 1
4
1 1 0 1
4
1 1 0 1
4
1 1 0 1
4
1 1 0 1
4
1 1 0 1
4
1 1 0 1
4
1 1 0 1
4
1 1 0 1
4
1 1 0 1
4
1 1 0 1
4
1 1 0 1
4
1 1 0 1
4
1 1 0 1
4
1 1 0 1
4
1 1 0 1
4
1 1 0 1
4
1 1 0 1
4
1 1 0 1
4
1 1 0 1
4
1 1 0 1
4
1 1 0 1
4
1 1 0 1
4
1 1 0 1
4
1 1 0 1
4
1 1 0 1
4
1 1 0 1
4
1 1 0 1
4
1 1 0 1
4
1 1 0 1
4
1 1 0 1
4
1 1 0 1
4
1 1 0 1
4
1 1 0 1
4
1 1 0 1
4
1 1 0 1
4
1 1 0 1
4
1 1 0 1
4
1 1 0 1
4
1 1 0 1
4
1 1 0 1
4
1 1 0 1
4
1 1 0 1
4
1 1 0 1
4
1 1 0 1
4
1 1 0 1
4
1 1 0 1
4
1 1 0 1
4
1 1 0 1
4
1 1 0 1
4
1 1 0 1
4
1 1 0 1
4
1 1 0 1
4
1 1 0 1
4
1 1 0 1
4
1 1 0 1
4
1 1 0 1
4
1 1 0 1
4
1 1 0 1
4
1 1 0 1
4
1 1 0 1
4
1 1 0 1
4
1 1 0 1
4
1 1 0 1
4
1 1 0 1
4
1 1 0 1
4
1 1 0 1
4
1 1 0 1
4
1 1 0 1
4
1 1 0 1
4
1 1 0 1
4
1 1 0 1
4
1 1 0 1
4
1 1 0 1
4
1 1 0 1
4
1 1 0 1
4
1 1 0 1
4
1 1 0 1
4
1 1 0 1
4
1 1 0 1
4
1 1 0 1
4
1 1 0 1
4
1 1 0 1
4
1 1 0 1
4
1 1 0 1
4
1 1 0 1
4
1 1 0 1
4
1 1 0 1
4
1 1 0 1
4
1 1 0 1
4
1 1 0 1
4
1 1 0 1
4
1 1 0 1
4
1 1 0 1
4
1 1 0 1
4
1 1 0 1
4
1 1 0 1
4
1 1 0 1
4
1 1 0 1
4
1 1 0 1
4
1 1 0 1
4
1 1 0 1
4
1 1 0 1
4
1 1 0 1
4
1 1 0 1
4
1 1 0 1
4
1 1 0 1
4
1 1 0 1
4
1 1 0 1
4
1 1 0 1
4
1 1 0 1
4
1 1 0 1
4
1 1 0 1
4
1 1 0 1
4
1 1 0 1
4
1 1 0 1
4
1 1 0 1
4
1 1 0 1
4
1 1 0 1
4
1 1 0 1
4
1 1 0 1
4
1 1 0 1
4
1 1 0 1
4
1 1 0 1
4
1 1 0 1
4
1 1 0 1
4
1 1 0 1
4
1 1 0 1
4
1 1 0 1
4
1 1 0 1
4
1 1 0 1
4
1 1 0 1
4
1 1 0 1
4
1 1 0 1
4
1 1 0 1
4
1 1 0 1
4
1 1 0 1
4
1 1 0 1
4
1 1 0 1
4
1 1 0 1
4
1 1 0 1
4
1 1 0 1
4
1 1 0 1
4
1 1 0 1
4
1 1 0 1
4
1 1 0 1
4
1 1 0 1
4
1 1 0 1
4
1 1 0 1
4
1 1 0 1
4
1 1 0 1
4
1 1 0 1
4
1 1 0 1
4
1 1 0 1
4
1 1 0 1
4
1 1 0 1
4
1 1 0 1
4
1 1 0 1
4
1 1 0 1
4
1 1 0 1
4
1 1 0 1
4
1 1 0 1
4
1 1 0 1
4
1 1 0 1
4
1 1 0 1
4
1 1 0 1
4
1 1 0 1
4
1 1 0 1
4
1 1 0 1
4
1 1 0 1
4
1 1 0 1
4
1 1 0 1
4
1 1 0 1
4
1 1 0 1
4
1 1 0 1
4
1 1 0 1
4
1 1 0 1
4
1 1 0 1
4
1 1 0 1
4
1 1 0 1
4
1 1 0 1
4
1 1 0 1
4
1 1 0 1
4
1 1 0 1
4
1 1 0 1
4
1 1 0 1
4
1 1 0 1
4
1 1 0 1
4
1 1 0 1
4
1 1 0 1
4
1 1 0 1
4
1 1 0 1
4
1 1 0 1
4
1 1 0 1
4
1 1 0 1
4
1 1 0 1
4
1 1 0 1
4
1 1 0 1
4
1 1 0 1
4
1 1 0 1
4
1 1 0 1
4
1 1 0 1
4
1 1 0 1
4
1 1 0 1
4
1 1 0 1
4
1 1 0 1
4
1 1 0 1
4
1 1 0 1
4
1 1 0 1
4
1 1 0 1
4
1 1 0 1
4
1 1 0 1
4
1 1 0 1
4
1 1 0 1
4
1 1 0 1
4
1 1 0 1
4
1 1 0 1
4
1 1 0 1
4
1 1 0 1
4
1 1 0 1
4
1 1 0 1
4
1 1 0 1
4
1 1 0 1
4
1 1 0 1
4
1 1 0 1
4
1 1 0 1
4
1 1 0 1
4
1 1 0 1
4
1 1 0 1
4
1 1 0 1
4
1 1 0 1
4
1 1 0 1
4
1 1 0 1
4
1 1 0 1
4
1 1 0 1
4
1 1 0 1
4
1 1 0 1
4
1 1 0 1
4
1 1 0 1
4
1 1 0 1
4
1 1 0 1
4
1 1 0 1
4
1 1 0 1
4
1 1 0 1
4
1 1 0 1
4
1 1 0 1
4
1 1 0 1
4
1 1 0 1
4
1 1 0 1
4
1 1 0 1
4
1 1 0 1
4
1 1 0 1
4
1 1 0 1
4
1 1 0 1
4
1 1 0 1
4
1 1 0 1
4
1 1 0 1
4
1 1 0 1
4
1 1 0 1
4
1 1 0 1
4
1 1 0 1
4
1 1 0 1
4
1 1 0 1
4
1 1 0 1
4
1 1 0 1
4
1 1 0 1
4
1 1 0 1
4
1 1 0 1
4
1 1 0 1
4
1 1 0 1
4
1 1 0 1
4
1 1 0 1
4
1 1 0 1
4
1 1 0 1
4
1 1 0 1
4
1 1 0 1
4
1 1 0 1
4
1 1 0 1
4
1 1 0 1
4
1 1 0 1
4
1 1 0 1
4
1 1 0 1
4
1 1 0 1
4
1 1 0 1
4
1 1 0 1
4
1 1 0 1
4
1 1 0 1
4
1 1 0 1
4
1 1 0 1
4
1 1 0 1
4
1 1 0 1
4
1 1 0 1
4
1 1 0 1
4
1 1 0 1
4
1 1 0 1
4
1 1 0 1
4
1 1 0 1
4
1 1 0 1
4
1 1 0 1
4
1 1 0 1
4
1 1 0 1
4
1 1 0 1
4
1 1 0 1
4
1 1 0 1
4
1 1 0 1
4
1 1 0 1
4
1 1 0 1
4
1 1 0 1
4
1 1 0 1
4
1 1 0 1
4
1 1 0 1
4
1 1 0 1
4
1 1 0 1
4
1 1 0 1
4
1 1 0 1
4
1 1 0 1
4
1 1 0 1
4
1 1 0 1
4
1 1 0 1
4
1 1 0 1
4
1 1 0 1
4
1 1 0 1
4
1 1 0 1
4
1 1 0 1
4
1 1 0 1
4
1 1 0 1
4
1 1 0 1
4
1 1 0 1
4
1 1 0 1
4
1 1 0 1
4
1 1 0 1
4
1 1 0 1
4
1 1 0 1
4
1 1 0 1
4
1 1 0 1
4
1 1 0 1
4
1 1 0 1
4
1 1 0 1
4
1 1 0 1
4
1 1 0 1
4
1 1 0 1
4
1 1 0 1
4
1 1 0 1
4
1 1 0 1
4
1 1 0 1
4
1 1 0 1
4
1 1 0 1
4
1 1 0 1
4
1 1 0 1
4
1 1 0 1
4
1 1 0 1
4
1 1 0 1
4
1 1 0 1
4
1 1 0 1
4
1 1 0 1
4
1 1 0 1
4
1 1 0 1
4
1 1 0 1
4
1 1 0 1
4
1 1 0 1
4
1 1 0 1
4
1 1 0 1
4
1 1 0 1
4
1 1 0 1
4
1 1 0 1
4
1 1 0 1
4
1 1 0 1
4
1 1 0 1
4
1 1 0 1
4
1 1 0 1
4
1 1 0 1
4
1 1 0 1
4
1 1 0 1
4
1 1 0 1
4
1 1 0 1
4
1 1 0 1
4
1 1 0 1
4
1 1 0 1
4
1 1 0 1
4
1 1 0 1
4
1 1 0 1
4
1 1 0 1
4
1 1 0 1
4
1 1 0 1
4
1 1 0 1
4
1 1 0 1
4
1 1 0 1
4
1 1 0 1
4
1 1 0 1
4
1 1 0 1
4
1 1 0 1
4
1 1 0 1
4
1 1 0 1
4
1 1 0 1
4
1 1 0 1
4
1 1 0 1
4
1 1 0 1
4
1 1 0 1
4
1 1 0 1
4
1 1 0 1
4
1 1 0 1
4
1 1 0 1
4
1 1 0 1
4
1 1 0 1
4
1 1 0 1
4
1 1 0 1
4
1 1 0 1
4
1 1 0 1
4
1 1 0 1
4
1 1 0 1
4
1 1 0 1
4
1 1 0 1
4
1 1 0 1
4
1 1 0 1
4
1 1 0 1
4
1 1 0 1
4
1 1 0 1
4
1 1 0 1
4
1 1 0 1
4
1 1 0 1
4
1 1 0 1
4
1 1 0 1
4
1 1 0 1
4
1 1 0 1
4
1 1 0 1
4
1 1 0 1
4
1 1 0 1
4
1 1 0 1
4
1 1 0 1
4
1 1 0 1
4
1 1 0 1
4
1 1 0 1
4
1 1 0 1
4
1 1 0 1
4
1 1 0 1
4
1 1 0 1
4
1 1 0 1
4
1 1 0 1
4
1 1 0 1
4
1 1 0 1
4
1 1 0 1
4
1 1 0 1
4
1 1 0 1
4
1 1 0 1
4
1 1 0 1
4
1 1 0 1
4
1 1 0 1
4
1 1 0 1
4
1 1 0 1
4
1 1 0 1
4
1 1 0 1
4
1 1 0 1
4
1 1 0 1
4
1 1 0 1
4
1 1 0 1
4
1 1 0 1
4
1 1 0 1
4
1 1 0 1
4
1 1 0 1
4
1 1 0 1
4
1 1 0 1
4
1 1 0 1
4
1 1 0 1
4
1 1 0 1
4
1 1 0 1
4
1 1 0 1
4
1 1 0 1
